Data path: /scratch/opt/lxu/CFLG/benchmarks/random_A
Instance: r_10_0.1_12.txt
Result path: /scratch/opt/lxu/CFLG/results/random_A
Solver: Gurobi
Time limit: 7200
Formulation: LEFPAD
Cover: Large
julia --project=. src/main.jl /scratch/opt/lxu/CFLG/benchmarks/random_A r_10_0.1_12.txt /scratch/opt/lxu/CFLG/results/random_A Gurobi 7200 LEFPAD Large
The latest version of Julia in the `release` channel is 1.11.6+0.x64.linux.gnu. You currently have `1.11.4+0.x64.linux.gnu` installed. Run:

  juliaup update

in your terminal shell to install Julia 1.11.6+0.x64.linux.gnu and update the `release` channel to that version.
/scratch/opt/lxu/CFLG/benchmarks/random_A Gurobi 7200.0 /scratch/opt/lxu/CFLG/results/random_A r_10_0.1_12.txt LEFPAD Large
/scratch/opt/lxu/CFLG/benchmarks/random_A/r_10_0.1_12.txt

 read graph
data loaded

problem_graph/original graph: node: 10/10 edge: 12/12 dlt: 1.3664679164480846 break_avg_len: 0.6832339582240423 break_max_len: 0.9551886407953641Vbar/V, Ebar/E(7, 10, 9, 12)
Set parameter TokenServer to value "solice01.zib.de"
Set parameter Threads to value 1
Set parameter OutputFlag to value 1
Gurobi Optimizer version 12.0.1 build v12.0.1rc0 (linux64 - "Debian GNU/Linux 12 (bookworm)")

CPU model: Intel(R) Xeon(R) Gold 5122 CPU @ 3.60GHz, instruction set [SSE2|AVX|AVX2|AVX512]
Thread count: 8 physical cores, 16 logical processors, using up to 1 threads

Non-default parameters:
Threads  1

Optimize a model with 20 rows, 33 columns and 55 nonzeros
Model fingerprint: 0x32ea1cf5
Coefficient statistics:
  Matrix range     [1e+00, 1e+00]
  Objective range  [1e+00, 1e+00]
  Bounds range     [1e+00, 1e+00]
  RHS range        [1e+00, 1e+00]
Presolve removed 8 rows and 10 columns
Presolve time: 0.01s
Presolved: 12 rows, 23 columns, 37 nonzeros

Iteration    Objective       Primal Inf.    Dual Inf.      Time
       0    1.1000000e+01   5.000000e+00   0.000000e+00      0s
       3    7.0000000e+00   0.000000e+00   0.000000e+00      0s

Solved in 3 iterations and 0.02 seconds (0.00 work units)
Optimal objective  7.000000000e+00

User-callback calls 82, time in user-callback 0.01 sec
elapsed CPU time: 1.293281 seconds
Set parameter TokenServer to value "solice01.zib.de"
Set parameter Threads to value 1
Set parameter OutputFlag to value 1
Set parameter MIPGap to value 0.0001
Set parameter TimeLimit to value 7198.706719

 more cuts: false 1.3664679164480846 false
is_attach:trueformulation:LEFPAD0 11 9

 model loaded

Gurobi Optimizer version 12.0.1 build v12.0.1rc0 (linux64 - "Debian GNU/Linux 12 (bookworm)")

CPU model: Intel(R) Xeon(R) Gold 5122 CPU @ 3.60GHz, instruction set [SSE2|AVX|AVX2|AVX512]
Thread count: 8 physical cores, 16 logical processors, using up to 1 threads

Non-default parameters:
TimeLimit  7198.706719
Threads  1

Optimize a model with 483 rows, 314 columns and 1354 nonzeros
Model fingerprint: 0x9efe5741
Variable types: 157 continuous, 157 integer (157 binary)
Coefficient statistics:
  Matrix range     [8e-03, 1e+00]
  Objective range  [1e+00, 1e+00]
  Bounds range     [4e-01, 1e+00]
  RHS range        [4e-01, 3e+00]
Found heuristic solution: objective 6.0000000
Presolve removed 187 rows and 75 columns
Presolve time: 0.01s
Presolved: 296 rows, 239 columns, 1034 nonzeros
Variable types: 111 continuous, 128 integer (128 binary)
Found heuristic solution: objective 5.0000000

Root relaxation: objective 1.146307e+00, 200 iterations, 0.00 seconds (0.00 work units)

    Nodes    |    Current Node    |     Objective Bounds      |     Work
 Expl Unexpl |  Obj  Depth IntInf | Incumbent    BestBd   Gap | It/Node Time

     0     0    1.14631    0   36    5.00000    1.14631  77.1%     -    0s
H    0     0                       4.0000000    1.14631  71.3%     -    0s
H    0     0                       3.0000000    1.14631  61.8%     -    0s
H    0     0                       2.0000000    1.14631  42.7%     -    0s
     0     0    1.14631    0   36    2.00000    1.14631  42.7%     -    0s

Explored 1 nodes (265 simplex iterations) in 0.02 seconds (0.01 work units)
Thread count was 1 (of 16 available processors)

Solution count 5: 2 3 4 ... 6

Optimal solution found (tolerance 1.00e-04)
Best objective 2.000000000000e+00, best bound 2.000000000000e+00, gap 0.0000%

User-callback calls 556, time in user-callback 0.00 sec

 sepatime0 0 0
2.0
Stat(MathOptInterface.OPTIMAL, 2.0, 2.0, 0.0, 0.0, 1.293281, 0.019073009490966797, 1, Main.CFLG.LEFPAD, "", #undef)
